\ Model _copy
\ LP format - for model browsing. Use MPS format to capture full model detail.
Minimize
 
Subject To
 R4: x[4] >= -0.1
 R10: x[0] = -0.1
 R11: x[1] = -0.025285
 R12: x[2] = 0.011807
 R13: x[3] = -0.009691
 R969: 8.061009700191772 x[0] + 1.999149400820504 x[1]
   + 14.61939010505164 x[2] + 18.57021803388265 x[3]
   + 14.18467459516904 x[4] - y[193] <= -14.39822909503838
 R970: 8.572030878395909 x[0] + 7.402364963685908 x[1]
   + 11.7256875192271 x[2] + 13.76063905098613 x[3]
   + 10.21326242716823 x[4] - y[193] >= -3.527404461942018
Bounds
 x[0] free
 x[1] free
 x[2] free
 x[3] free
 x[4] free
 y[193] free
End
